(declare-const BAV1 Bool)
(declare-const GEN2 Real)
(declare-const GEN1 Real)
(set-option :auto-config false)
(set-option :produce-models true)
(declare-const x Real)
(assert (= (^ x GEN1) GEN2))
(assert (= BAV1 (= (^ x GEN1) GEN2)))
(check-sat)
(get-model)